65 55
61 52
55 54
53 52
57 48
55 45
53 43
49 42
47 47
41 49
37 47
35 40
35 35
37 31
36 26
40 25
44 17
47 16
46 13
45 10
42 7
49 11
53 12
55 5
67 5
60 12
65 20
63 23
57 29
56 37
56 39
50 35
45 30
41 37
26 35
25 30
26 27
25 24
25 21
22 22
21 24
22 27
20 26
18 24
16 22
15 19
18 18
20 20
19 21
12 24
10 20
11 14
15 10
24 12
28 18
35 17
32 12
30 5
23 3
5 5
4 18
5 30
11 31
15 30
17 34
14 37
20 40
27 43
26 52
31 52
37 56
40 60
45 65
49 58
55 60
63 65
57 68
62 77
49 73
35 69
31 67
27 69
20 65
15 60
8 56
13 52
15 47
20 50
24 58
30 60
15 77
6 68
2 60
2 48
10 43
6 38
30 25
45 20
55 20
65 35
64 42
65 55
